*SPEF "ieee 1481-1999"
*DESIGN "tt_if"
*DATE "15:51:05 Saturday December 20, 2025"
*VENDOR "The OpenROAD Project"
*PROGRAM "OpenROAD"
*VERSION "2.0-unstable-2025-03-01_e794373d44ac5421f0633d8dda7e5c59e8fe79bf"
*DESIGN_FLOW "NAME_SCOPE LOCAL" "PIN_CAP NONE"
*DIVIDER /
*DELIMITER :
*BUS_DELIMITER []
*T_UNIT 1 NS
*C_UNIT 1 PF
*R_UNIT 1 OHM
*L_UNIT 1 HENRY

*NAME_MAP
*3 i_clk
*4 i_ena
*5 i_rst_n
*6 ui_in[0]
*7 ui_in[1]
*8 ui_in[2]
*9 ui_in[3]
*10 ui_in[4]
*11 ui_in[5]
*12 ui_in[6]
*13 ui_in[7]
*14 uio_in[0]
*15 uio_in[1]
*16 uio_in[2]
*17 uio_in[3]
*18 uio_in[4]
*19 uio_in[5]
*20 uio_in[6]
*21 uio_in[7]
*22 net7
*23 net8
*24 net9
*25 net10
*26 net11
*27 net12
*28 net13
*29 net14
*30 net15
*31 net16
*32 net17
*33 net18
*34 net19
*35 net20
*36 net21
*37 net22
*38 uo_out[0]
*39 uo_out[1]
*40 uo_out[2]
*41 uo_out[3]
*42 net23
*43 net24
*44 net25
*45 net26
*46 _00_
*47 _01_
*48 _02_
*49 _03_
*50 _04_
*51 _05_
*52 _06_
*53 _07_
*54 clknet_0_i_clk
*55 clknet_1_0__leaf_i_clk
*56 clknet_1_1__leaf_i_clk
*57 net1
*58 net2
*59 net27
*60 net28
*61 net29
*62 net3
*63 net30
*64 net31
*65 net4
*66 net5
*67 net6
*68 FILLER_0_12
*69 FILLER_0_24
*70 FILLER_0_49
*71 FILLER_1_42
*72 FILLER_1_48
*73 FILLER_1_6
*74 FILLER_2_25
*75 FILLER_2_6
*76 FILLER_3_11
*77 FILLER_3_19
*78 FILLER_3_3
*79 FILLER_3_31
*80 FILLER_3_35
*81 FILLER_4_24
*82 FILLER_4_6
*83 FILLER_5_14
*84 FILLER_5_37
*85 FILLER_6_11
*86 FILLER_6_27
*87 FILLER_6_29
*88 FILLER_6_3
*89 FILLER_6_50
*90 FILLER_7_12
*91 FILLER_7_16
*92 FILLER_7_22
*93 FILLER_8_13
*94 FILLER_8_20
*95 FILLER_8_9
*96 PHY_EDGE_ROW_0_Left_9
*97 PHY_EDGE_ROW_0_Right_0
*98 PHY_EDGE_ROW_1_Left_10
*99 PHY_EDGE_ROW_1_Right_1
*100 PHY_EDGE_ROW_2_Left_11
*101 PHY_EDGE_ROW_2_Right_2
*102 PHY_EDGE_ROW_3_Left_12
*103 PHY_EDGE_ROW_3_Right_3
*104 PHY_EDGE_ROW_4_Left_13
*105 PHY_EDGE_ROW_4_Right_4
*106 PHY_EDGE_ROW_5_Left_14
*107 PHY_EDGE_ROW_5_Right_5
*108 PHY_EDGE_ROW_6_Left_15
*109 PHY_EDGE_ROW_6_Right_6
*110 PHY_EDGE_ROW_7_Left_16
*111 PHY_EDGE_ROW_7_Right_7
*112 PHY_EDGE_ROW_8_Left_17
*113 PHY_EDGE_ROW_8_Right_8
*114 TAP_TAPCELL_ROW_0_18
*115 TAP_TAPCELL_ROW_2_19
*116 TAP_TAPCELL_ROW_4_20
*117 TAP_TAPCELL_ROW_6_21
*118 TAP_TAPCELL_ROW_8_22
*119 _08_
*120 _09_
*121 _10_
*122 _11_
*123 _12_
*124 _13_
*125 _14_
*126 _15_
*127 _16_
*128 _17_
*129 _18_
*130 _19_
*131 clkbuf_0_i_clk
*132 clkbuf_1_0__f_i_clk
*133 clkbuf_1_1__f_i_clk
*134 hold1
*135 hold2
*136 hold3
*137 hold4
*138 hold5
*139 input1
*140 input2
*141 output3
*142 output4
*143 output5
*144 output6
*145 tt_if_10
*146 tt_if_11
*147 tt_if_12
*148 tt_if_13
*149 tt_if_14
*150 tt_if_15
*151 tt_if_16
*152 tt_if_17
*153 tt_if_18
*154 tt_if_19
*155 tt_if_20
*156 tt_if_21
*157 tt_if_22
*158 tt_if_23
*159 tt_if_24
*160 tt_if_25
*161 tt_if_26
*162 tt_if_7
*163 tt_if_8
*164 tt_if_9

*PORTS
i_clk I
i_ena I
i_rst_n I
ui_in[0] I
ui_in[1] I
ui_in[2] I
ui_in[3] I
ui_in[4] I
ui_in[5] I
ui_in[6] I
ui_in[7] I
uio_in[0] I
uio_in[1] I
uio_in[2] I
uio_in[3] I
uio_in[4] I
uio_in[5] I
uio_in[6] I
uio_in[7] I
uio_oe[0] O
uio_oe[1] O
uio_oe[2] O
uio_oe[3] O
uio_oe[4] O
uio_oe[5] O
uio_oe[6] O
uio_oe[7] O
uio_out[0] O
uio_out[1] O
uio_out[2] O
uio_out[3] O
uio_out[4] O
uio_out[5] O
uio_out[6] O
uio_out[7] O
uo_out[0] O
uo_out[1] O
uo_out[2] O
uo_out[3] O
uo_out[4] O
uo_out[5] O
uo_out[6] O
uo_out[7] O

*D_NET *3 0.00314265
*CONN
*P i_clk I
*I *131:A I *D sky130_fd_sc_hd__clkbuf_16
*CAP
1 i_clk 0.000935608
2 *131:A 0
3 *3:15 0.000935608
4 *3:15 uio_out[7] 4.01568e-05
5 *3:15 *121:A 0.000301719
6 *3:15 *121:C 0.000269775
7 *3:15 *121:D 0.000228909
8 *3:15 *4:17 2.79122e-05
9 *3:15 *23:10 0.00010018
10 *3:15 *51:12 2.4754e-05
11 *3:15 *54:8 6.17437e-06
12 *3:15 *62:20 0.000180218
13 *3:15 *66:25 9.16362e-05
*RES
1 i_clk *3:15 42.1151 
2 *3:15 *131:A 23 
*END

*D_NET *4 0.00072786
*CONN
*P i_ena I
*I *136:A I *D sky130_fd_sc_hd__dlygate4sd3_1
*CAP
1 i_ena 0.000335529
2 *136:A 0
3 *4:17 0.000335529
4 *4:17 uio_oe[1] 2.88889e-05
5 *4:17 *23:10 0
6 *3:15 *4:17 2.79122e-05
*RES
1 i_ena *4:17 27.5105 
2 *4:17 *136:A 23 
*END

*D_NET *5 0.000944367
*CONN
*P i_rst_n I
*I *134:A I *D sky130_fd_sc_hd__dlygate4sd3_1
*CAP
1 i_rst_n 0.000361312
2 *134:A 0
3 *5:11 0.000361312
4 *5:11 uio_oe[0] 6.55021e-05
5 *5:11 uio_oe[5] 0
6 *5:11 uio_out[6] 3.87221e-06
7 *5:11 *67:25 0.000152368
*RES
1 i_rst_n *5:11 27.6862 
2 *5:11 *134:A 23 
*END

*D_NET *22 0.00151319
*CONN
*P uio_oe[0] O
*I *162:LO O *D sky130_fd_sc_hd__conb_1
*CAP
1 uio_oe[0] 0.000287727
2 *162:LO 0.000285421
3 *22:10 0.000573147
4 uio_oe[0] uio_out[5] 6.61891e-05
5 *22:10 *67:25 0.000235207
6 *5:11 uio_oe[0] 6.55021e-05
*RES
1 *162:LO *22:10 43.1889 
2 *22:10 uio_oe[0] 9.10133 
*END

*D_NET *23 0.000792228
*CONN
*P uio_oe[1] O
*I *163:LO O *D sky130_fd_sc_hd__conb_1
*CAP
1 uio_oe[1] 8.62259e-05
2 *163:LO 0.000230909
3 *23:10 0.000317135
4 uio_oe[1] uio_oe[2] 2.88889e-05
5 *3:15 *23:10 0.00010018
6 *4:17 uio_oe[1] 2.88889e-05
7 *4:17 *23:10 0
*RES
1 *163:LO *23:10 42.7332 
2 *23:10 uio_oe[1] 8.4816 
*END

*D_NET *24 0.000634663
*CONN
*P uio_oe[2] O
*I *164:LO O *D sky130_fd_sc_hd__conb_1
*CAP
1 uio_oe[2] 0.00028982
2 *164:LO 0.00028982
3 uio_oe[2] uio_oe[3] 2.61329e-05
4 uio_oe[1] uio_oe[2] 2.88889e-05
*RES
1 *164:LO uio_oe[2] 49.8062 
*END

*D_NET *25 0.000661201
*CONN
*P uio_oe[3] O
*I *145:LO O *D sky130_fd_sc_hd__conb_1
*CAP
1 uio_oe[3] 0.000304467
2 *145:LO 0.000304467
3 uio_oe[3] uio_oe[6] 2.61329e-05
4 uio_oe[3] *31:8 0
5 uio_oe[2] uio_oe[3] 2.61329e-05
*RES
1 *145:LO uio_oe[3] 49.8062 
*END

*D_NET *26 0.00179446
*CONN
*P uio_oe[4] O
*I *146:LO O *D sky130_fd_sc_hd__conb_1
*CAP
1 uio_oe[4] 0.000118216
2 *146:LO 0.000401896
3 *26:10 0.000520113
4 uio_oe[4] uio_out[0] 5.08354e-05
5 *26:10 uo_out[4] 0.000667086
6 *26:10 *30:10 1.1926e-05
7 *26:10 *33:10 2.43903e-05
*RES
1 *146:LO *26:10 48.7196 
2 *26:10 uio_oe[4] 8.50027 
*END

*D_NET *27 0.000500002
*CONN
*P uio_oe[5] O
*I *147:LO O *D sky130_fd_sc_hd__conb_1
*CAP
1 uio_oe[5] 0.000202719
2 *147:LO 0.000202719
3 uio_oe[5] uio_out[2] 8.11094e-05
4 uio_oe[5] *138:A 1.34542e-05
5 *5:11 uio_oe[5] 0
*RES
1 *147:LO uio_oe[5] 47.1648 
*END

*D_NET *28 0.000958194
*CONN
*P uio_oe[6] O
*I *148:LO O *D sky130_fd_sc_hd__conb_1
*CAP
1 uio_oe[6] 0.000120433
2 *148:LO 0.00018379
3 *28:10 0.000304222
4 uio_oe[6] uio_oe[7] 2.12457e-05
5 *28:10 *29:10 0.000302371
6 uio_oe[3] uio_oe[6] 2.61329e-05
*RES
1 *148:LO *28:10 42.0289 
2 *28:10 uio_oe[6] 8.4816 
*END

*D_NET *29 0.00176787
*CONN
*P uio_oe[7] O
*I *149:LO O *D sky130_fd_sc_hd__conb_1
*CAP
1 uio_oe[7] 5.90057e-05
2 *149:LO 0.000272781
3 *29:10 0.000331787
4 uio_oe[7] uio_out[1] 3.49463e-05
5 *29:10 uio_out[1] 0.00042988
6 *29:10 *31:8 0.000315857
7 uio_oe[6] uio_oe[7] 2.12457e-05
8 *28:10 *29:10 0.000302371
*RES
1 *149:LO *29:10 47.5596 
2 *29:10 uio_oe[7] 8.32853 
*END

*D_NET *30 0.00142059
*CONN
*P uio_out[0] O
*I *150:LO O *D sky130_fd_sc_hd__conb_1
*CAP
1 uio_out[0] 0.00018358
2 *150:LO 0.000303847
3 *30:10 0.000487427
4 uio_out[0] uio_out[3] 3.25681e-05
5 *30:10 uo_out[4] 0.000292124
6 *30:10 uo_out[5] 0
7 *30:10 *33:10 0
8 *30:10 *37:10 5.82853e-05
9 uio_oe[4] uio_out[0] 5.08354e-05
10 *26:10 *30:10 1.1926e-05
*RES
1 *150:LO *30:10 45.2811 
2 *30:10 uio_out[0] 8.672 
*END

*D_NET *31 0.00214645
*CONN
*P uio_out[1] O
*I *151:LO O *D sky130_fd_sc_hd__conb_1
*CAP
1 uio_out[1] 0.000456736
2 *151:LO 0.000226144
3 *31:8 0.00068288
4 uio_oe[3] *31:8 0
5 uio_oe[7] uio_out[1] 3.49463e-05
6 *29:10 uio_out[1] 0.00042988
7 *29:10 *31:8 0.000315857
*RES
1 *151:LO *31:8 42.9093 
2 *31:8 uio_out[1] 17.8912 
*END

*D_NET *32 0.000523194
*CONN
*P uio_out[2] O
*I *152:LO O *D sky130_fd_sc_hd__conb_1
*CAP
1 uio_out[2] 0.000221042
2 *152:LO 0.000221042
3 uio_oe[5] uio_out[2] 8.11094e-05
*RES
1 *152:LO uio_out[2] 47.1648 
*END

*D_NET *33 0.00126436
*CONN
*P uio_out[3] O
*I *153:LO O *D sky130_fd_sc_hd__conb_1
*CAP
1 uio_out[3] 6.73162e-05
2 *153:LO 0.000346226
3 *33:10 0.000413542
4 uio_out[3] uio_out[7] 3.1268e-05
5 *33:10 *37:10 0.000349047
6 uio_out[0] uio_out[3] 3.25681e-05
7 *26:10 *33:10 2.43903e-05
8 *30:10 *33:10 0
*RES
1 *153:LO *33:10 45.7989 
2 *33:10 uio_out[3] 8.32853 
*END

*D_NET *34 0.000543401
*CONN
*P uio_out[4] O
*I *154:LO O *D sky130_fd_sc_hd__conb_1
*CAP
1 uio_out[4] 0.000221819
2 *154:LO 0.000221819
3 uio_out[4] uio_out[5] 6.8315e-05
4 uio_out[4] uio_out[6] 6.10551e-06
5 uio_out[4] uo_out[3] 2.5343e-05
*RES
1 *154:LO uio_out[4] 47.1648 
*END

*D_NET *35 0.000807708
*CONN
*P uio_out[5] O
*I *155:LO O *D sky130_fd_sc_hd__conb_1
*CAP
1 uio_out[5] 0.000331319
2 *155:LO 0.000331319
3 uio_out[5] *67:25 1.05658e-05
4 uio_oe[0] uio_out[5] 6.61891e-05
5 uio_out[4] uio_out[5] 6.8315e-05
*RES
1 *155:LO uio_out[5] 47.5083 
*END

*D_NET *36 0.00252301
*CONN
*P uio_out[6] O
*I *156:LO O *D sky130_fd_sc_hd__conb_1
*CAP
1 uio_out[6] 0.0011261
2 *156:LO 0.000130412
3 *36:8 0.00125652
4 uio_out[6] uo_out[3] 0
5 uio_out[6] *67:25 0
6 uio_out[4] uio_out[6] 6.10551e-06
7 *5:11 uio_out[6] 3.87221e-06
*RES
1 *156:LO *36:8 39.5743 
2 *36:8 uio_out[6] 22.7236 
*END

*D_NET *37 0.00103627
*CONN
*P uio_out[7] O
*I *157:LO O *D sky130_fd_sc_hd__conb_1
*CAP
1 uio_out[7] 8.91289e-05
2 *157:LO 0.000189627
3 *37:10 0.000278756
4 uio_out[3] uio_out[7] 3.1268e-05
5 *3:15 uio_out[7] 4.01568e-05
6 *30:10 *37:10 5.82853e-05
7 *33:10 *37:10 0.000349047
*RES
1 *157:LO *37:10 43.2304 
2 *37:10 uio_out[7] 8.4144 
*END

*D_NET *38 0.00117337
*CONN
*P uo_out[0] O
*I *141:X O *D sky130_fd_sc_hd__buf_2
*CAP
1 uo_out[0] 4.49146e-05
2 *141:X 0.000385652
3 *38:8 0.000430566
4 *38:8 uo_out[2] 0.000312233
5 *38:8 uo_out[6] 0
*RES
1 *141:X *38:8 49.2375 
2 *38:8 uo_out[0] 1.02536 
*END

*D_NET *39 0.00152724
*CONN
*P uo_out[1] O
*I *142:X O *D sky130_fd_sc_hd__buf_2
*CAP
1 uo_out[1] 0.000428968
2 *142:X 4.89793e-05
3 *39:8 0.000477947
4 uo_out[1] uo_out[2] 0
5 uo_out[1] uo_out[7] 0.000456045
6 uo_out[1] *56:10 8.57577e-05
7 *39:8 *65:22 2.95423e-05
*RES
1 *142:X *39:8 38.6214 
2 *39:8 uo_out[1] 12.8429 
*END

*D_NET *40 0.0013596
*CONN
*P uo_out[2] O
*I *143:X O *D sky130_fd_sc_hd__buf_2
*CAP
1 uo_out[2] 0.000465919
2 *143:X 0
3 *40:6 0.000465919
4 uo_out[2] *133:A 0.000115526
5 uo_out[1] uo_out[2] 0
6 *38:8 uo_out[2] 0.000312233
*RES
1 *143:X *40:6 38 
2 *40:6 uo_out[2] 13.3193 
*END

*D_NET *41 0.0012292
*CONN
*P uo_out[3] O
*I *144:X O *D sky130_fd_sc_hd__buf_2
*CAP
1 uo_out[3] 0.000601928
2 *144:X 0
3 *41:6 0.000601928
4 uo_out[3] uo_out[7] 0
5 uio_out[4] uo_out[3] 2.5343e-05
6 uio_out[6] uo_out[3] 0
*RES
1 *144:X *41:6 38 
2 *41:6 uo_out[3] 12.8429 
*END

*D_NET *42 0.00171291
*CONN
*P uo_out[4] O
*I *158:LO O *D sky130_fd_sc_hd__conb_1
*CAP
1 uo_out[4] 0.000376851
2 *158:LO 0.000376851
3 uo_out[4] uo_out[5] 0
4 *26:10 uo_out[4] 0.000667086
5 *30:10 uo_out[4] 0.000292124
*RES
1 *158:LO uo_out[4] 49.8279 
*END

*D_NET *43 0.00099886
*CONN
*P uo_out[5] O
*I *159:LO O *D sky130_fd_sc_hd__conb_1
*CAP
1 uo_out[5] 0.00049943
2 *159:LO 0.00049943
3 uo_out[5] uo_out[6] 0
4 uo_out[4] uo_out[5] 0
5 *30:10 uo_out[5] 0
*RES
1 *159:LO uo_out[5] 48.73 
*END

*D_NET *44 0.000980411
*CONN
*P uo_out[6] O
*I *160:LO O *D sky130_fd_sc_hd__conb_1
*CAP
1 uo_out[6] 0.000490205
2 *160:LO 0.000490205
3 uo_out[5] uo_out[6] 0
4 *38:8 uo_out[6] 0
*RES
1 *160:LO uo_out[6] 48.73 
*END

*D_NET *45 0.00268807
*CONN
*P uo_out[7] O
*I *161:LO O *D sky130_fd_sc_hd__conb_1
*CAP
1 uo_out[7] 0.000710587
2 *161:LO 3.75913e-05
3 *45:8 0.000748179
4 uo_out[7] *130:CLK 0.000221513
5 uo_out[7] *56:10 0.000347037
6 uo_out[7] *65:10 0.000167113
7 uo_out[1] uo_out[7] 0.000456045
8 uo_out[3] uo_out[7] 0
*RES
1 *161:LO *45:8 38.6214 
2 *45:8 uo_out[7] 20.6107 
*END

*D_NET *46 0.000736211
*CONN
*I *137:A I *D sky130_fd_sc_hd__dlygate4sd3_1
*I *120:Y O *D sky130_fd_sc_hd__xnor2_1
*CAP
1 *137:A 0.000153198
2 *120:Y 7.37924e-05
3 *46:8 0.00022699
4 *137:A *65:22 0.000141355
5 *46:8 *143:A 0.000140875
*RES
1 *120:Y *46:8 39.9057 
2 *46:8 *137:A 40.5271 
*END

*D_NET *47 0.00174816
*CONN
*I *128:D I *D sky130_fd_sc_hd__dfrtp_1
*I *123:X O *D sky130_fd_sc_hd__and2b_1
*CAP
1 *128:D 0
2 *123:X 0.000649385
3 *47:10 0.000649385
4 *47:10 *54:12 0.000373091
5 *47:10 *55:22 7.62945e-05
6 *47:10 *60:10 0
*RES
1 *123:X *47:10 48.9371 
2 *47:10 *128:D 38 
*END

*D_NET *48 0.000623954
*CONN
*I *129:D I *D sky130_fd_sc_hd__dfrtp_1
*I *124:X O *D sky130_fd_sc_hd__xor2_1
*CAP
1 *129:D 0
2 *124:X 0.000274785
3 *48:8 0.000274785
4 *48:8 *55:22 7.43844e-05
*RES
1 *124:X *48:8 27.8057 
2 *48:8 *129:D 23 
*END

*D_NET *49 0.0014121
*CONN
*I *130:D I *D sky130_fd_sc_hd__dfrtp_1
*I *126:X O *D sky130_fd_sc_hd__and2_1
*CAP
1 *130:D 0
2 *126:X 0.000599745
3 *49:10 0.000599745
4 *49:10 *120:B 3.71887e-05
5 *49:10 *127:CLK 5.05325e-05
6 *49:10 *65:22 0.000124884
*RES
1 *126:X *49:10 46.3686 
2 *49:10 *130:D 38 
*END

*D_NET *50 0.00052655
*CONN
*I *120:B I *D sky130_fd_sc_hd__xnor2_1
*I *126:A I *D sky130_fd_sc_hd__and2_1
*I *119:Y O *D sky130_fd_sc_hd__nand2_1
*CAP
1 *120:B 0.000149138
2 *126:A 0
3 *119:Y 4.53036e-05
4 *50:6 0.000194442
5 *120:B *119:A 4.21921e-05
6 *50:6 *119:A 5.82853e-05
7 *49:10 *120:B 3.71887e-05
*RES
1 *119:Y *50:6 24.0979 
2 *50:6 *126:A 23 
3 *50:6 *120:B 26.0036 
*END

*D_NET *51 0.00132515
*CONN
*I *123:A_N I *D sky130_fd_sc_hd__and2b_1
*I *124:B I *D sky130_fd_sc_hd__xor2_1
*I *121:X O *D sky130_fd_sc_hd__and4_1
*CAP
1 *123:A_N 0
2 *124:B 0.000262637
3 *121:X 0.000187251
4 *51:12 0.000449888
5 *124:B *52:8 1.44546e-05
6 *124:B *66:10 0.000102365
7 *51:12 *121:D 0.000143655
8 *51:12 *52:8 5.86165e-05
9 *51:12 *66:10 8.15327e-05
10 *3:15 *51:12 2.4754e-05
*RES
1 *121:X *51:12 42.8057 
2 *51:12 *124:B 43.6136 
3 *51:12 *123:A_N 38 
*END

*D_NET *52 0.000284956
*CONN
*I *123:B I *D sky130_fd_sc_hd__and2b_1
*I *122:X O *D sky130_fd_sc_hd__a31o_1
*CAP
1 *123:B 0
2 *122:X 0.000105943
3 *52:8 0.000105943
4 *124:B *52:8 1.44546e-05
5 *51:12 *52:8 5.86165e-05
*RES
1 *122:X *52:8 40.61 
2 *52:8 *123:B 38 
*END

*D_NET *53 0.000367083
*CONN
*I *126:B I *D sky130_fd_sc_hd__and2_1
*I *125:X O *D sky130_fd_sc_hd__or2_1
*CAP
1 *126:B 0
2 *125:X 9.57989e-05
3 *53:8 9.57989e-05
4 *53:8 *62:34 1.0092e-05
5 *53:8 *62:49 0.000165394
*RES
1 *125:X *53:8 40.2579 
2 *53:8 *126:B 38 
*END

*D_NET *54 0.00404195
*CONN
*I *133:A I *D sky130_fd_sc_hd__clkbuf_16
*I *132:A I *D sky130_fd_sc_hd__clkbuf_16
*I *131:X O *D sky130_fd_sc_hd__clkbuf_16
*CAP
1 *133:A 0.000478311
2 *132:A 0
3 *131:X 0.000541171
4 *54:12 0.000635762
5 *54:8 0.00165524
6 *133:A *143:A 9.14718e-05
7 *133:A *65:22 0.000117106
8 *54:12 *121:C 2.57393e-05
9 *54:12 *143:A 2.35118e-06
10 *54:12 *55:10 0
11 *54:12 *60:10 0
12 *54:12 *60:27 0
13 *54:12 *64:10 0
14 uo_out[2] *133:A 0.000115526
15 *3:15 *54:8 6.17437e-06
16 *47:10 *54:12 0.000373091
*RES
1 *131:X *54:8 44.815 
2 *54:8 *54:12 27.47 
3 *54:12 *132:A 23 
4 *54:8 *133:A 48.005 
*END

*D_NET *55 0.00179299
*CONN
*I *128:CLK I *D sky130_fd_sc_hd__dfrtp_1
*I *129:CLK I *D sky130_fd_sc_hd__dfrtp_1
*I *132:X O *D sky130_fd_sc_hd__clkbuf_16
*CAP
1 *128:CLK 0
2 *129:CLK 0
3 *132:X 0.000333058
4 *55:22 0.00028406
5 *55:14 0.000425481
6 *55:10 0.000474479
7 *55:14 *128:RESET_B 0.000125234
8 *47:10 *55:22 7.62945e-05
9 *48:8 *55:22 7.43844e-05
10 *54:12 *55:10 0
*RES
1 *132:X *55:10 42.4329 
2 *55:10 *55:14 17.5271 
3 *55:14 *55:22 35.365 
4 *55:22 *129:CLK 23 
5 *55:14 *128:CLK 23 
*END

*D_NET *56 0.00258422
*CONN
*I *127:CLK I *D sky130_fd_sc_hd__dfrtp_1
*I *130:CLK I *D sky130_fd_sc_hd__dfrtp_1
*I *133:X O *D sky130_fd_sc_hd__clkbuf_16
*CAP
1 *127:CLK 0.000189637
2 *130:CLK 0.000175757
3 *133:X 0.000350399
4 *56:10 0.000715794
5 *127:CLK *127:D 0.000134666
6 *130:CLK *127:RESET_B 0.000113398
7 *130:CLK *130:RESET_B 5.40241e-05
8 *130:CLK *60:27 6.2088e-05
9 *56:10 *63:10 8.36198e-05
10 uo_out[1] *56:10 8.57577e-05
11 uo_out[7] *130:CLK 0.000221513
12 uo_out[7] *56:10 0.000347037
13 *49:10 *127:CLK 5.05325e-05
*RES
1 *133:X *56:10 44.7736 
2 *56:10 *130:CLK 42.5364 
3 *56:10 *127:CLK 42.4329 
*END

*D_NET *57 0.00234646
*CONN
*I *125:B I *D sky130_fd_sc_hd__or2_1
*I *119:B I *D sky130_fd_sc_hd__nand2_1
*I *121:D I *D sky130_fd_sc_hd__and4_1
*I *122:A3 I *D sky130_fd_sc_hd__a31o_1
*I *139:X O *D sky130_fd_sc_hd__clkbuf_1
*CAP
1 *125:B 0.000445128
2 *119:B 0
3 *121:D 5.34781e-05
4 *122:A3 0
5 *139:X 0.000319293
6 *57:35 0.000605358
7 *57:12 5.34781e-05
8 *57:10 0.000159063
9 *125:B *125:A 0.000100486
10 *57:10 *62:12 4.77144e-05
11 *57:10 *65:45 0.000186189
12 *57:35 *65:45 3.7122e-06
13 *3:15 *121:D 0.000228909
14 *51:12 *121:D 0.000143655
*RES
1 *139:X *57:10 40.8793 
2 *57:10 *57:12 15 
3 *57:12 *122:A3 23 
4 *57:12 *121:D 25.5271 
5 *139:X *57:35 40.5271 
6 *57:35 *119:B 38 
7 *57:35 *125:B 46.0993 
*END

*D_NET *58 0.00100078
*CONN
*I *135:A I *D sky130_fd_sc_hd__dlygate4sd3_1
*I *140:X O *D sky130_fd_sc_hd__dlymetal6s2s_1
*CAP
1 *135:A 7.692e-05
2 *140:X 0.000225538
3 *58:10 0.000302458
4 *135:A *59:14 3.22051e-05
5 *58:10 *59:14 0.000232839
6 *58:10 *60:27 0
7 *58:10 *67:25 0.000130815
*RES
1 *140:X *58:10 44.0486 
2 *58:10 *135:A 39.5743 
*END

*D_NET *59 0.000936443
*CONN
*I *140:A I *D sky130_fd_sc_hd__dlymetal6s2s_1
*I *134:X O *D sky130_fd_sc_hd__dlygate4sd3_1
*CAP
1 *140:A 6.78703e-05
2 *134:X 0.000267829
3 *59:14 0.0003357
4 *59:14 *60:27 0
5 *135:A *59:14 3.22051e-05
6 *58:10 *59:14 0.000232839
*RES
1 *134:X *59:14 44.1107 
2 *59:14 *140:A 39.0979 
*END

*D_NET *60 0.00367693
*CONN
*I *127:RESET_B I *D sky130_fd_sc_hd__dfrtp_1
*I *130:RESET_B I *D sky130_fd_sc_hd__dfrtp_1
*I *129:RESET_B I *D sky130_fd_sc_hd__dfrtp_1
*I *128:RESET_B I *D sky130_fd_sc_hd__dfrtp_1
*I *135:X O *D sky130_fd_sc_hd__dlygate4sd3_1
*CAP
1 *127:RESET_B 6.95421e-05
2 *130:RESET_B 0.000419134
3 *129:RESET_B 0
4 *128:RESET_B 0.000365083
5 *135:X 7.99168e-05
6 *60:27 0.000828769
7 *60:10 0.000556579
8 *60:8 0.000611505
9 *128:RESET_B *64:10 0.000391654
10 *130:CLK *127:RESET_B 0.000113398
11 *130:CLK *130:RESET_B 5.40241e-05
12 *130:CLK *60:27 6.2088e-05
13 *47:10 *60:10 0
14 *54:12 *60:10 0
15 *54:12 *60:27 0
16 *55:14 *128:RESET_B 0.000125234
17 *58:10 *60:27 0
18 *59:14 *60:27 0
*RES
1 *135:X *60:8 39.0979 
2 *60:8 *60:10 3.66643 
3 *60:10 *128:RESET_B 23.1718 
4 *60:10 *129:RESET_B 15 
5 *60:8 *60:27 6.48357 
6 *60:27 *130:RESET_B 20.4789 
7 *60:27 *127:RESET_B 16.5536 
*END

*D_NET *61 6.41931e-05
*CONN
*I *139:A I *D sky130_fd_sc_hd__clkbuf_1
*I *136:X O *D sky130_fd_sc_hd__dlygate4sd3_1
*CAP
1 *139:A 3.20965e-05
2 *136:X 3.20965e-05
*RES
1 *136:X *139:A 46.6214 
*END

*D_NET *62 0.00384504
*CONN
*I *141:A I *D sky130_fd_sc_hd__buf_2
*I *125:A I *D sky130_fd_sc_hd__or2_1
*I *119:A I *D sky130_fd_sc_hd__nand2_1
*I *121:A I *D sky130_fd_sc_hd__and4_1
*I *122:A1 I *D sky130_fd_sc_hd__a31o_1
*I *130:Q O *D sky130_fd_sc_hd__dfrtp_1
*CAP
1 *141:A 0.000422087
2 *125:A 4.16892e-05
3 *119:A 4.52219e-05
4 *121:A 5.37476e-05
5 *122:A1 0
6 *130:Q 4.79803e-05
7 *62:49 0.000625506
8 *62:34 0.000313208
9 *62:20 8.2929e-05
10 *62:12 0.000313792
11 *62:8 0.000331351
12 *121:A *66:25 0.000313255
13 *62:8 *65:45 1.84917e-05
14 *62:12 *121:B 0
15 *62:12 *65:45 1.41891e-05
16 *62:20 *65:45 6.16439e-05
17 *62:20 *66:10 1.14452e-05
18 *62:20 *66:25 0.000242402
19 *120:B *119:A 4.21921e-05
20 *125:B *125:A 0.000100486
21 *3:15 *121:A 0.000301719
22 *3:15 *62:20 0.000180218
23 *50:6 *119:A 5.82853e-05
24 *53:8 *62:34 1.0092e-05
25 *53:8 *62:49 0.000165394
26 *57:10 *62:12 4.77144e-05
*RES
1 *130:Q *62:8 38.6214 
2 *62:8 *62:12 18.3143 
3 *62:12 *62:20 32.9 
4 *62:20 *122:A1 23 
5 *62:12 *121:A 26.48 
6 *62:8 *62:34 1.90571 
7 *62:34 *119:A 39.0979 
8 *62:34 *62:49 4.08071 
9 *62:49 *125:A 39.0979 
10 *62:49 *141:A 45.6643 
*END

*D_NET *63 0.000787773
*CONN
*I *127:D I *D sky130_fd_sc_hd__dfrtp_1
*I *137:X O *D sky130_fd_sc_hd__dlygate4sd3_1
*CAP
1 *127:D 0.000165901
2 *137:X 0.0001098
3 *63:10 0.000275701
4 *63:10 *65:22 1.80852e-05
5 *127:CLK *127:D 0.000134666
6 *56:10 *63:10 8.36198e-05
*RES
1 *137:X *63:10 39.8229 
2 *63:10 *127:D 40.5945 
*END

*D_NET *64 0.00155162
*CONN
*I *124:A I *D sky130_fd_sc_hd__xor2_1
*I *138:X O *D sky130_fd_sc_hd__dlygate4sd3_1
*CAP
1 *124:A 0
2 *138:X 0.000579984
3 *64:10 0.000579984
4 *64:10 *66:10 0
5 *128:RESET_B *64:10 0.000391654
6 *54:12 *64:10 0
*RES
1 *138:X *64:10 46.7207 
2 *64:10 *124:A 38 
*END

*D_NET *65 0.00489225
*CONN
*I *142:A I *D sky130_fd_sc_hd__buf_2
*I *120:A I *D sky130_fd_sc_hd__xnor2_1
*I *122:A2 I *D sky130_fd_sc_hd__a31o_1
*I *121:B I *D sky130_fd_sc_hd__and4_1
*I *127:Q O *D sky130_fd_sc_hd__dfrtp_1
*CAP
1 *142:A 0
2 *120:A 0
3 *122:A2 0
4 *121:B 0.000245075
5 *127:Q 0.00043787
6 *65:45 0.000381718
7 *65:26 0.000793154
8 *65:22 0.000782764
9 *65:12 0.000616403
10 *65:10 0.00043787
11 *121:B *121:C 5.50049e-05
12 *65:22 *143:A 0.00024816
13 *65:45 *66:25 1.19141e-05
14 uo_out[7] *65:10 0.000167113
15 *133:A *65:22 0.000117106
16 *137:A *65:22 0.000141355
17 *39:8 *65:22 2.95423e-05
18 *49:10 *65:22 0.000124884
19 *57:10 *65:45 0.000186189
20 *57:35 *65:45 3.7122e-06
21 *62:8 *65:45 1.84917e-05
22 *62:12 *121:B 0
23 *62:12 *65:45 1.41891e-05
24 *62:20 *65:45 6.16439e-05
25 *63:10 *65:22 1.80852e-05
*RES
1 *127:Q *65:10 44.2143 
2 *65:10 *65:12 15 
3 *65:12 *65:22 42.6564 
4 *65:22 *65:26 17.9621 
5 *65:26 *121:B 41.9357 
6 *65:26 *65:45 37.395 
7 *65:45 *122:A2 38 
8 *65:22 *120:A 23 
9 *65:12 *142:A 23 
*END

*D_NET *66 0.00468911
*CONN
*I *143:A I *D sky130_fd_sc_hd__buf_2
*I *121:C I *D sky130_fd_sc_hd__and4_1
*I *122:B1 I *D sky130_fd_sc_hd__a31o_1
*I *128:Q O *D sky130_fd_sc_hd__dfrtp_1
*CAP
1 *143:A 0.000324344
2 *121:C 0.000172466
3 *122:B1 0
4 *128:Q 0.000459386
5 *66:25 0.0010412
6 *66:10 0.00100378
7 *121:A *66:25 0.000313255
8 *121:B *121:C 5.50049e-05
9 *124:B *66:10 0.000102365
10 *133:A *143:A 9.14718e-05
11 *3:15 *121:C 0.000269775
12 *3:15 *66:25 9.16362e-05
13 *46:8 *143:A 0.000140875
14 *51:12 *66:10 8.15327e-05
15 *54:12 *121:C 2.57393e-05
16 *54:12 *143:A 2.35118e-06
17 *62:20 *66:10 1.14452e-05
18 *62:20 *66:25 0.000242402
19 *64:10 *66:10 0
20 *65:22 *143:A 0.00024816
21 *65:45 *66:25 1.19141e-05
*RES
1 *128:Q *66:10 47.1143 
2 *66:10 *122:B1 38 
3 *66:10 *66:25 38.4929 
4 *66:25 *121:C 42.205 
5 *66:25 *143:A 45.8921 
*END

*D_NET *67 0.00271129
*CONN
*I *144:A I *D sky130_fd_sc_hd__buf_2
*I *138:A I *D sky130_fd_sc_hd__dlygate4sd3_1
*I *129:Q O *D sky130_fd_sc_hd__dfrtp_1
*CAP
1 *144:A 0
2 *138:A 0.000407152
3 *129:Q 5.45698e-05
4 *67:25 0.000622717
5 *67:8 0.00108444
6 uio_oe[5] *138:A 1.34542e-05
7 uio_out[5] *67:25 1.05658e-05
8 uio_out[6] *67:25 0
9 *5:11 *67:25 0.000152368
10 *22:10 *67:25 0.000235207
11 *58:10 *67:25 0.000130815
*RES
1 *129:Q *67:8 38.6214 
2 *67:8 *138:A 45.6229 
3 *67:8 *67:25 29.1479 
4 *67:25 *144:A 23 
*END
