*SPEF "ieee 1481-1999"
*DESIGN "tt_if"
*DATE "15:51:05 Saturday December 20, 2025"
*VENDOR "The OpenROAD Project"
*PROGRAM "OpenROAD"
*VERSION "2.0-unstable-2025-03-01_e794373d44ac5421f0633d8dda7e5c59e8fe79bf"
*DESIGN_FLOW "NAME_SCOPE LOCAL" "PIN_CAP NONE"
*DIVIDER /
*DELIMITER :
*BUS_DELIMITER []
*T_UNIT 1 NS
*C_UNIT 1 PF
*R_UNIT 1 OHM
*L_UNIT 1 HENRY

*NAME_MAP
*3 i_clk
*4 i_ena
*5 i_rst_n
*6 ui_in[0]
*7 ui_in[1]
*8 ui_in[2]
*9 ui_in[3]
*10 ui_in[4]
*11 ui_in[5]
*12 ui_in[6]
*13 ui_in[7]
*14 uio_in[0]
*15 uio_in[1]
*16 uio_in[2]
*17 uio_in[3]
*18 uio_in[4]
*19 uio_in[5]
*20 uio_in[6]
*21 uio_in[7]
*22 net7
*23 net8
*24 net9
*25 net10
*26 net11
*27 net12
*28 net13
*29 net14
*30 net15
*31 net16
*32 net17
*33 net18
*34 net19
*35 net20
*36 net21
*37 net22
*38 uo_out[0]
*39 uo_out[1]
*40 uo_out[2]
*41 uo_out[3]
*42 net23
*43 net24
*44 net25
*45 net26
*46 _00_
*47 _01_
*48 _02_
*49 _03_
*50 _04_
*51 _05_
*52 _06_
*53 _07_
*54 clknet_0_i_clk
*55 clknet_1_0__leaf_i_clk
*56 clknet_1_1__leaf_i_clk
*57 net1
*58 net2
*59 net27
*60 net28
*61 net29
*62 net3
*63 net30
*64 net31
*65 net4
*66 net5
*67 net6
*68 FILLER_0_12
*69 FILLER_0_24
*70 FILLER_0_49
*71 FILLER_1_42
*72 FILLER_1_48
*73 FILLER_1_6
*74 FILLER_2_25
*75 FILLER_2_6
*76 FILLER_3_11
*77 FILLER_3_19
*78 FILLER_3_3
*79 FILLER_3_31
*80 FILLER_3_35
*81 FILLER_4_24
*82 FILLER_4_6
*83 FILLER_5_14
*84 FILLER_5_37
*85 FILLER_6_11
*86 FILLER_6_27
*87 FILLER_6_29
*88 FILLER_6_3
*89 FILLER_6_50
*90 FILLER_7_12
*91 FILLER_7_16
*92 FILLER_7_22
*93 FILLER_8_13
*94 FILLER_8_20
*95 FILLER_8_9
*96 PHY_EDGE_ROW_0_Left_9
*97 PHY_EDGE_ROW_0_Right_0
*98 PHY_EDGE_ROW_1_Left_10
*99 PHY_EDGE_ROW_1_Right_1
*100 PHY_EDGE_ROW_2_Left_11
*101 PHY_EDGE_ROW_2_Right_2
*102 PHY_EDGE_ROW_3_Left_12
*103 PHY_EDGE_ROW_3_Right_3
*104 PHY_EDGE_ROW_4_Left_13
*105 PHY_EDGE_ROW_4_Right_4
*106 PHY_EDGE_ROW_5_Left_14
*107 PHY_EDGE_ROW_5_Right_5
*108 PHY_EDGE_ROW_6_Left_15
*109 PHY_EDGE_ROW_6_Right_6
*110 PHY_EDGE_ROW_7_Left_16
*111 PHY_EDGE_ROW_7_Right_7
*112 PHY_EDGE_ROW_8_Left_17
*113 PHY_EDGE_ROW_8_Right_8
*114 TAP_TAPCELL_ROW_0_18
*115 TAP_TAPCELL_ROW_2_19
*116 TAP_TAPCELL_ROW_4_20
*117 TAP_TAPCELL_ROW_6_21
*118 TAP_TAPCELL_ROW_8_22
*119 _08_
*120 _09_
*121 _10_
*122 _11_
*123 _12_
*124 _13_
*125 _14_
*126 _15_
*127 _16_
*128 _17_
*129 _18_
*130 _19_
*131 clkbuf_0_i_clk
*132 clkbuf_1_0__f_i_clk
*133 clkbuf_1_1__f_i_clk
*134 hold1
*135 hold2
*136 hold3
*137 hold4
*138 hold5
*139 input1
*140 input2
*141 output3
*142 output4
*143 output5
*144 output6
*145 tt_if_10
*146 tt_if_11
*147 tt_if_12
*148 tt_if_13
*149 tt_if_14
*150 tt_if_15
*151 tt_if_16
*152 tt_if_17
*153 tt_if_18
*154 tt_if_19
*155 tt_if_20
*156 tt_if_21
*157 tt_if_22
*158 tt_if_23
*159 tt_if_24
*160 tt_if_25
*161 tt_if_26
*162 tt_if_7
*163 tt_if_8
*164 tt_if_9

*PORTS
i_clk I
i_ena I
i_rst_n I
ui_in[0] I
ui_in[1] I
ui_in[2] I
ui_in[3] I
ui_in[4] I
ui_in[5] I
ui_in[6] I
ui_in[7] I
uio_in[0] I
uio_in[1] I
uio_in[2] I
uio_in[3] I
uio_in[4] I
uio_in[5] I
uio_in[6] I
uio_in[7] I
uio_oe[0] O
uio_oe[1] O
uio_oe[2] O
uio_oe[3] O
uio_oe[4] O
uio_oe[5] O
uio_oe[6] O
uio_oe[7] O
uio_out[0] O
uio_out[1] O
uio_out[2] O
uio_out[3] O
uio_out[4] O
uio_out[5] O
uio_out[6] O
uio_out[7] O
uo_out[0] O
uo_out[1] O
uo_out[2] O
uo_out[3] O
uo_out[4] O
uo_out[5] O
uo_out[6] O
uo_out[7] O

*D_NET *3 0.00296768
*CONN
*P i_clk I
*I *131:A I *D sky130_fd_sc_hd__clkbuf_16
*CAP
1 i_clk 0.000843976
2 *131:A 0.000843976
3 *131:A uio_oe[1] 0.00010096
4 *131:A uio_out[7] 4.29604e-05
5 *131:A *121:A 0.000303747
6 *131:A *121:C 0.000271345
7 *131:A *121:D 0.000230482
8 *131:A *122:A1 0.00018077
9 *131:A *136:A 2.87684e-05
10 *131:A *51:12 2.44318e-05
11 *131:A *54:8 6.05161e-06
12 *131:A *66:25 9.02133e-05
*RES
1 i_clk *131:A 33.6751 
*END

*D_NET *4 0.000674812
*CONN
*P i_ena I
*I *136:A I *D sky130_fd_sc_hd__dlygate4sd3_1
*CAP
1 i_ena 0.000308026
2 *136:A 0.000308026
3 *136:A uio_oe[1] 2.99915e-05
4 *131:A *136:A 2.87684e-05
*RES
1 i_ena *136:A 21.0874 
*END

*D_NET *5 0.00088326
*CONN
*P i_rst_n I
*I *134:A I *D sky130_fd_sc_hd__dlygate4sd3_1
*CAP
1 i_rst_n 0.00032994
2 *134:A 0.00032994
3 *134:A uio_oe[0] 7.32533e-05
4 *134:A uio_oe[5] 0
5 *134:A uio_out[6] 4.19624e-06
6 *134:A *144:A 0.00014593
*RES
1 i_rst_n *134:A 21.2306 
*END

*D_NET *22 0.00140992
*CONN
*P uio_oe[0] O
*I *162:LO O *D sky130_fd_sc_hd__conb_1
*CAP
1 uio_oe[0] 0.000519921
2 *162:LO 0.000519921
3 uio_oe[0] uio_out[5] 8.53315e-05
4 uio_oe[0] *144:A 0.000211492
5 *134:A uio_oe[0] 7.32533e-05
*RES
1 *162:LO uio_oe[0] 22.6075 
*END

*D_NET *23 0.00075003
*CONN
*P uio_oe[1] O
*I *163:LO O *D sky130_fd_sc_hd__conb_1
*CAP
1 uio_oe[1] 0.000294543
2 *163:LO 0.000294543
3 uio_oe[1] uio_oe[2] 2.99915e-05
4 *131:A uio_oe[1] 0.00010096
5 *136:A uio_oe[1] 2.99915e-05
*RES
1 *163:LO uio_oe[1] 21.6946 
*END

*D_NET *24 0.000593542
*CONN
*P uio_oe[2] O
*I *164:LO O *D sky130_fd_sc_hd__conb_1
*CAP
1 uio_oe[2] 0.000268186
2 *164:LO 0.000268186
3 uio_oe[2] uio_oe[3] 2.71788e-05
4 uio_oe[1] uio_oe[2] 2.99915e-05
*RES
1 *164:LO uio_oe[2] 20.4803 
*END

*D_NET *25 0.000605793
*CONN
*P uio_oe[3] O
*I *145:LO O *D sky130_fd_sc_hd__conb_1
*CAP
1 uio_oe[3] 0.000275718
2 *145:LO 0.000275718
3 uio_oe[3] uio_oe[6] 2.71788e-05
4 uio_oe[3] uio_out[1] 0
5 uio_oe[2] uio_oe[3] 2.71788e-05
*RES
1 *145:LO uio_oe[3] 20.4803 
*END

*D_NET *26 0.00164869
*CONN
*P uio_oe[4] O
*I *146:LO O *D sky130_fd_sc_hd__conb_1
*CAP
1 uio_oe[4] 0.000475962
2 *146:LO 0.000475962
3 uio_oe[4] uio_out[0] 6.55069e-05
4 uio_oe[4] uio_out[3] 2.34337e-05
5 uio_oe[4] uo_out[4] 0.000607826
*RES
1 *146:LO uio_oe[4] 26.8709 
*END

*D_NET *27 0.000477207
*CONN
*P uio_oe[5] O
*I *147:LO O *D sky130_fd_sc_hd__conb_1
*CAP
1 uio_oe[5] 0.000189108
2 *147:LO 0.000189108
3 uio_oe[5] uio_out[2] 8.61318e-05
4 uio_oe[5] *138:A 1.28585e-05
5 *134:A uio_oe[5] 0
*RES
1 *147:LO uio_oe[5] 18.1949 
*END

*D_NET *28 0.000894623
*CONN
*P uio_oe[6] O
*I *148:LO O *D sky130_fd_sc_hd__conb_1
*CAP
1 uio_oe[6] 0.000274299
2 *148:LO 0.000274299
3 uio_oe[6] uio_oe[7] 0.000318846
4 uio_oe[3] uio_oe[6] 2.71788e-05
*RES
1 *148:LO uio_oe[6] 21.0874 
*END

*D_NET *29 0.00165762
*CONN
*P uio_oe[7] O
*I *149:LO O *D sky130_fd_sc_hd__conb_1
*CAP
1 uio_oe[7] 0.0002985
2 *149:LO 0.0002985
3 uio_oe[7] uio_out[1] 0.000741775
4 uio_oe[6] uio_oe[7] 0.000318846
*RES
1 *149:LO uio_oe[7] 25.7268 
*END

*D_NET *30 0.00129495
*CONN
*P uio_out[0] O
*I *150:LO O *D sky130_fd_sc_hd__conb_1
*CAP
1 uio_out[0] 0.000437571
2 *150:LO 0.000437571
3 uio_out[0] uio_out[3] 3.45861e-05
4 uio_out[0] uio_out[7] 5.66971e-05
5 uio_out[0] uo_out[4] 0.00026302
6 uio_out[0] uo_out[5] 0
7 uio_oe[4] uio_out[0] 6.55069e-05
*RES
1 *150:LO uio_out[0] 24.0508 
*END

*D_NET *31 0.00202156
*CONN
*P uio_out[1] O
*I *151:LO O *D sky130_fd_sc_hd__conb_1
*CAP
1 uio_out[1] 0.00063989
2 *151:LO 0.00063989
3 uio_oe[3] uio_out[1] 0
4 uio_oe[7] uio_out[1] 0.000741775
*RES
1 *151:LO uio_out[1] 29.9596 
*END

*D_NET *32 0.000494533
*CONN
*P uio_out[2] O
*I *152:LO O *D sky130_fd_sc_hd__conb_1
*CAP
1 uio_out[2] 0.0002042
2 *152:LO 0.0002042
3 uio_oe[5] uio_out[2] 8.61318e-05
*RES
1 *152:LO uio_out[2] 18.1949 
*END

*D_NET *33 0.00119049
*CONN
*P uio_out[3] O
*I *153:LO O *D sky130_fd_sc_hd__conb_1
*CAP
1 uio_out[3] 0.000380263
2 *153:LO 0.000380263
3 uio_out[3] uio_out[7] 0.000371942
4 uio_oe[4] uio_out[3] 2.34337e-05
5 uio_out[0] uio_out[3] 3.45861e-05
*RES
1 *153:LO uio_out[3] 24.2089 
*END

*D_NET *34 0.000513279
*CONN
*P uio_out[4] O
*I *154:LO O *D sky130_fd_sc_hd__conb_1
*CAP
1 uio_out[4] 0.000204581
2 *154:LO 0.000204581
3 uio_out[4] uio_out[5] 7.51465e-05
4 uio_out[4] uio_out[6] 6.27272e-06
5 uio_out[4] uo_out[3] 2.26973e-05
*RES
1 *154:LO uio_out[4] 18.1949 
*END

*D_NET *35 0.000776159
*CONN
*P uio_out[5] O
*I *155:LO O *D sky130_fd_sc_hd__conb_1
*CAP
1 uio_out[5] 0.000302745
2 *155:LO 0.000302745
3 uio_out[5] *144:A 1.01912e-05
4 uio_oe[0] uio_out[5] 8.53315e-05
5 uio_out[4] uio_out[5] 7.51465e-05
*RES
1 *155:LO uio_out[5] 18.4832 
*END

*D_NET *36 0.00234551
*CONN
*P uio_out[6] O
*I *156:LO O *D sky130_fd_sc_hd__conb_1
*CAP
1 uio_out[6] 0.00116752
2 *156:LO 0.00116752
3 uio_out[6] uo_out[3] 0
4 uio_out[6] *144:A 0
5 uio_out[4] uio_out[6] 6.27272e-06
6 *134:A uio_out[6] 4.19624e-06
*RES
1 *156:LO uio_out[6] 34.7464 
*END

*D_NET *37 0.000991486
*CONN
*P uio_out[7] O
*I *157:LO O *D sky130_fd_sc_hd__conb_1
*CAP
1 uio_out[7] 0.000259943
2 *157:LO 0.000259943
3 uio_out[0] uio_out[7] 5.66971e-05
4 uio_out[3] uio_out[7] 0.000371942
5 *131:A uio_out[7] 4.29604e-05
*RES
1 *157:LO uio_out[7] 22.0667 
*END

*D_NET *38 0.00110759
*CONN
*P uo_out[0] O
*I *141:X O *D sky130_fd_sc_hd__buf_2
*CAP
1 uo_out[0] 0.00039971
2 *141:X 0.00039971
3 uo_out[0] uo_out[2] 0.000308166
4 uo_out[0] uo_out[6] 0
*RES
1 *141:X uo_out[0] 24.3714 
*END

*D_NET *39 0.00142237
*CONN
*P uo_out[1] O
*I *142:X O *D sky130_fd_sc_hd__buf_2
*CAP
1 uo_out[1] 0.000440076
2 *142:X 0.000440076
3 uo_out[1] uo_out[2] 0
4 uo_out[1] uo_out[7] 0.000436275
5 uo_out[1] *56:10 7.74135e-05
6 uo_out[1] *65:22 2.85234e-05
*RES
1 *142:X uo_out[1] 25.4071 
*END

*D_NET *40 0.00126994
*CONN
*P uo_out[2] O
*I *143:X O *D sky130_fd_sc_hd__buf_2
*CAP
1 uo_out[2] 0.000429167
2 *143:X 0.000429167
3 uo_out[2] *133:A 0.000103437
4 uo_out[0] uo_out[2] 0.000308166
5 uo_out[1] uo_out[2] 0
*RES
1 *143:X uo_out[2] 25.2821 
*END

*D_NET *41 0.00115621
*CONN
*P uo_out[3] O
*I *144:X O *D sky130_fd_sc_hd__buf_2
*CAP
1 uo_out[3] 0.000566759
2 *144:X 0.000566759
3 uo_out[3] uo_out[7] 0
4 uio_out[4] uo_out[3] 2.26973e-05
5 uio_out[6] uo_out[3] 0
*RES
1 *144:X uo_out[3] 24.8714 
*END

*D_NET *42 0.00156099
*CONN
*P uo_out[4] O
*I *158:LO O *D sky130_fd_sc_hd__conb_1
*CAP
1 uo_out[4] 0.000345071
2 *158:LO 0.000345071
3 uo_out[4] uo_out[5] 0
4 uio_oe[4] uo_out[4] 0.000607826
5 uio_out[0] uo_out[4] 0.00026302
*RES
1 *158:LO uo_out[4] 23.9964 
*END

*D_NET *43 0.000943582
*CONN
*P uo_out[5] O
*I *159:LO O *D sky130_fd_sc_hd__conb_1
*CAP
1 uo_out[5] 0.000471791
2 *159:LO 0.000471791
3 uo_out[5] uo_out[6] 0
4 uio_out[0] uo_out[5] 0
5 uo_out[4] uo_out[5] 0
*RES
1 *159:LO uo_out[5] 23.05 
*END

*D_NET *44 0.000930923
*CONN
*P uo_out[6] O
*I *160:LO O *D sky130_fd_sc_hd__conb_1
*CAP
1 uo_out[6] 0.000465461
2 *160:LO 0.000465461
3 uo_out[0] uo_out[6] 0
4 uo_out[5] uo_out[6] 0
*RES
1 *160:LO uo_out[6] 23.05 
*END

*D_NET *45 0.00245468
*CONN
*P uo_out[7] O
*I *161:LO O *D sky130_fd_sc_hd__conb_1
*CAP
1 uo_out[7] 0.000679441
2 *161:LO 0.000679441
3 uo_out[7] *130:CLK 0.000198115
4 uo_out[7] *56:10 0.000311446
5 uo_out[7] *65:12 0.000149959
6 uo_out[1] uo_out[7] 0.000436275
7 uo_out[3] uo_out[7] 0
*RES
1 *161:LO uo_out[7] 32.1036 
*END

*D_NET *46 0.000652451
*CONN
*I *137:A I *D sky130_fd_sc_hd__dlygate4sd3_1
*I *120:Y O *D sky130_fd_sc_hd__xnor2_1
*CAP
1 *137:A 0.000193418
2 *120:Y 0.000193418
3 *137:A *143:A 0.000126272
4 *137:A *65:22 0.000139344
*RES
1 *120:Y *137:A 31.4214 
*END

*D_NET *47 0.00160833
*CONN
*I *128:D I *D sky130_fd_sc_hd__dfrtp_1
*I *123:X O *D sky130_fd_sc_hd__and2b_1
*CAP
1 *128:D 0.000597153
2 *123:X 0.000597153
3 *128:D *129:CLK 7.63851e-05
4 *128:D *132:A 0.000337637
5 *128:D *60:10 0
*RES
1 *123:X *128:D 37.0286 
*END

*D_NET *48 0.000578833
*CONN
*I *129:D I *D sky130_fd_sc_hd__dfrtp_1
*I *124:X O *D sky130_fd_sc_hd__xor2_1
*CAP
1 *129:D 0.000253053
2 *124:X 0.000253053
3 *129:D *129:CLK 7.27266e-05
*RES
1 *124:X *129:D 22.7429 
*END

*D_NET *49 0.00130718
*CONN
*I *130:D I *D sky130_fd_sc_hd__dfrtp_1
*I *126:X O *D sky130_fd_sc_hd__and2_1
*CAP
1 *130:D 0.000549621
2 *126:X 0.000549621
3 *130:D *120:B 3.73361e-05
4 *130:D *127:CLK 5.06207e-05
5 *130:D *65:22 0.000119977
*RES
1 *126:X *130:D 34.8143 
*END

*D_NET *50 0.000493383
*CONN
*I *120:B I *D sky130_fd_sc_hd__xnor2_1
*I *126:A I *D sky130_fd_sc_hd__and2_1
*I *119:Y O *D sky130_fd_sc_hd__nand2_1
*CAP
1 *120:B 0.000135251
2 *126:A 0
3 *119:Y 4.35386e-05
4 *50:6 0.00017879
5 *120:B *119:A 4.17702e-05
6 *50:6 *119:A 5.66971e-05
7 *130:D *120:B 3.73361e-05
*RES
1 *119:Y *50:6 10.2464 
2 *50:6 *126:A 9.3 
3 *50:6 *120:B 11.8893 
*END

*D_NET *51 0.00122637
*CONN
*I *123:A_N I *D sky130_fd_sc_hd__and2b_1
*I *124:B I *D sky130_fd_sc_hd__xor2_1
*I *121:X O *D sky130_fd_sc_hd__and4_1
*CAP
1 *123:A_N 0
2 *124:B 0.00024071
3 *121:X 0.000163731
4 *51:12 0.000404441
5 *124:B *123:B 1.41706e-05
6 *124:B *66:10 9.80029e-05
7 *51:12 *121:D 0.000144773
8 *51:12 *123:B 5.80217e-05
9 *51:12 *66:10 7.80929e-05
10 *131:A *51:12 2.44318e-05
*RES
1 *121:X *51:12 17.9429 
2 *51:12 *124:B 18.6393 
3 *51:12 *123:A_N 13.8 
*END

*D_NET *52 0.000260087
*CONN
*I *123:B I *D sky130_fd_sc_hd__and2b_1
*I *122:X O *D sky130_fd_sc_hd__a31o_1
*CAP
1 *123:B 9.39473e-05
2 *122:X 9.39473e-05
3 *124:B *123:B 1.41706e-05
4 *51:12 *123:B 5.80217e-05
*RES
1 *122:X *123:B 29.85 
*END

*D_NET *53 0.000321422
*CONN
*I *126:B I *D sky130_fd_sc_hd__and2_1
*I *125:X O *D sky130_fd_sc_hd__or2_1
*CAP
1 *126:B 8.18714e-05
2 *125:X 8.18714e-05
3 *126:B *62:34 9.15842e-06
4 *126:B *62:49 0.00014852
*RES
1 *125:X *126:B 29.5464 
*END

*D_NET *54 0.00363335
*CONN
*I *133:A I *D sky130_fd_sc_hd__clkbuf_16
*I *132:A I *D sky130_fd_sc_hd__clkbuf_16
*I *131:X O *D sky130_fd_sc_hd__clkbuf_16
*CAP
1 *133:A 0.00040716
2 *132:A 0.000550656
3 *131:X 0.000516097
4 *54:8 0.00147391
5 *132:A *121:C 2.60961e-05
6 *132:A *124:A 0
7 *132:A *143:A 2.53112e-06
8 *132:A *55:14 0
9 *132:A *60:10 0
10 *132:A *60:27 0
11 *133:A *143:A 9.66998e-05
12 *133:A *65:22 0.00011307
13 uo_out[2] *133:A 0.000103437
14 *128:D *132:A 0.000337637
15 *131:A *54:8 6.05161e-06
*RES
1 *131:X *54:8 19.675 
2 *54:8 *132:A 24.55 
3 *54:8 *133:A 22.425 
*END

*D_NET *55 0.00159367
*CONN
*I *128:CLK I *D sky130_fd_sc_hd__dfrtp_1
*I *129:CLK I *D sky130_fd_sc_hd__dfrtp_1
*I *132:X O *D sky130_fd_sc_hd__clkbuf_16
*CAP
1 *128:CLK 0
2 *129:CLK 0.000241309
3 *132:X 0.000420666
4 *55:14 0.000661976
5 *55:14 *128:RESET_B 0.000120604
6 *128:D *129:CLK 7.63851e-05
7 *129:D *129:CLK 7.27266e-05
8 *132:A *55:14 0
*RES
1 *132:X *55:14 24.3 
2 *55:14 *129:CLK 22.925 
3 *55:14 *128:CLK 9.3 
*END

*D_NET *56 0.0022936
*CONN
*I *127:CLK I *D sky130_fd_sc_hd__dfrtp_1
*I *130:CLK I *D sky130_fd_sc_hd__dfrtp_1
*I *133:X O *D sky130_fd_sc_hd__clkbuf_16
*CAP
1 *127:CLK 0.00017127
2 *130:CLK 0.000146024
3 *133:X 0.000303399
4 *56:10 0.000620692
5 *127:CLK *127:D 0.00012899
6 *130:CLK *127:RESET_B 0.000101915
7 *130:CLK *130:RESET_B 5.20669e-05
8 *130:CLK *60:27 5.5764e-05
9 *56:10 *127:D 7.58841e-05
10 uo_out[1] *56:10 7.74135e-05
11 uo_out[7] *130:CLK 0.000198115
12 uo_out[7] *56:10 0.000311446
13 *130:D *127:CLK 5.06207e-05
*RES
1 *133:X *56:10 19.6393 
2 *56:10 *130:CLK 17.7107 
3 *56:10 *127:CLK 17.6214 
*END

*D_NET *57 0.00215855
*CONN
*I *125:B I *D sky130_fd_sc_hd__or2_1
*I *119:B I *D sky130_fd_sc_hd__nand2_1
*I *121:D I *D sky130_fd_sc_hd__and4_1
*I *122:A3 I *D sky130_fd_sc_hd__a31o_1
*I *139:X O *D sky130_fd_sc_hd__clkbuf_1
*CAP
1 *125:B 0.000410598
2 *119:B 0
3 *121:D 4.93188e-05
4 *122:A3 0
5 *139:X 0.000272132
6 *57:35 0.000555314
7 *57:12 0.000176736
8 *125:B *125:A 9.84729e-05
9 *57:12 *122:A2 0.00017087
10 *57:12 *62:12 4.61643e-05
11 *57:35 *122:A2 3.69047e-06
12 *131:A *121:D 0.000230482
13 *51:12 *121:D 0.000144773
*RES
1 *139:X *57:12 20.7821 
2 *57:12 *122:A3 9.3 
3 *57:12 *121:D 11.4786 
4 *139:X *57:35 15.9786 
5 *57:35 *119:B 13.8 
6 *57:35 *125:B 20.7821 
*END

*D_NET *58 0.000901581
*CONN
*I *135:A I *D sky130_fd_sc_hd__dlygate4sd3_1
*I *140:X O *D sky130_fd_sc_hd__dlymetal6s2s_1
*CAP
1 *135:A 0.000261137
2 *140:X 0.000261137
3 *135:A *140:A 0.000247129
4 *135:A *144:A 0.000132178
5 *135:A *60:27 0
*RES
1 *140:X *135:A 34.1714 
*END

*D_NET *59 0.00084966
*CONN
*I *140:A I *D sky130_fd_sc_hd__dlymetal6s2s_1
*I *134:X O *D sky130_fd_sc_hd__dlygate4sd3_1
*CAP
1 *140:A 0.000301266
2 *134:X 0.000301266
3 *140:A *60:27 0
4 *135:A *140:A 0.000247129
*RES
1 *134:X *140:A 33.8143 
*END

*D_NET *60 0.00335615
*CONN
*I *127:RESET_B I *D sky130_fd_sc_hd__dfrtp_1
*I *130:RESET_B I *D sky130_fd_sc_hd__dfrtp_1
*I *129:RESET_B I *D sky130_fd_sc_hd__dfrtp_1
*I *128:RESET_B I *D sky130_fd_sc_hd__dfrtp_1
*I *135:X O *D sky130_fd_sc_hd__dlygate4sd3_1
*CAP
1 *127:RESET_B 5.76567e-05
2 *130:RESET_B 0.00038788
3 *129:RESET_B 0
4 *128:RESET_B 0.000323359
5 *135:X 6.91169e-05
6 *60:27 0.000751128
7 *60:10 0.000496928
8 *60:8 0.000548277
9 *128:RESET_B *124:A 0.00039145
10 *128:D *60:10 0
11 *130:CLK *127:RESET_B 0.000101915
12 *130:CLK *130:RESET_B 5.20669e-05
13 *130:CLK *60:27 5.5764e-05
14 *132:A *60:10 0
15 *132:A *60:27 0
16 *135:A *60:27 0
17 *140:A *60:27 0
18 *55:14 *128:RESET_B 0.000120604
*RES
1 *135:X *60:8 14.7464 
2 *60:8 *60:10 3.16071 
3 *60:10 *128:RESET_B 11.5446 
4 *60:10 *129:RESET_B 4.5 
5 *60:8 *60:27 5.58929 
6 *60:27 *130:RESET_B 9.22321 
7 *60:27 *127:RESET_B 5.83929 
*END

*D_NET *61 6.19756e-05
*CONN
*I *139:A I *D sky130_fd_sc_hd__clkbuf_1
*I *136:X O *D sky130_fd_sc_hd__dlygate4sd3_1
*CAP
1 *139:A 3.09878e-05
2 *136:X 3.09878e-05
*RES
1 *136:X *139:A 19.1357 
*END

*D_NET *62 0.0035662
*CONN
*I *141:A I *D sky130_fd_sc_hd__buf_2
*I *125:A I *D sky130_fd_sc_hd__or2_1
*I *119:A I *D sky130_fd_sc_hd__nand2_1
*I *121:A I *D sky130_fd_sc_hd__and4_1
*I *122:A1 I *D sky130_fd_sc_hd__a31o_1
*I *130:Q O *D sky130_fd_sc_hd__dfrtp_1
*CAP
1 *141:A 0.000390657
2 *125:A 3.71311e-05
3 *119:A 4.02634e-05
4 *121:A 4.53261e-05
5 *122:A1 6.29124e-05
6 *130:Q 4.33394e-05
7 *62:49 0.000576801
8 *62:34 0.000283912
9 *62:12 0.000259771
10 *62:8 0.000289508
11 *121:A *66:25 0.000315165
12 *122:A1 *122:A2 5.58941e-05
13 *122:A1 *66:10 1.02504e-05
14 *122:A1 *66:25 0.000236463
15 *62:8 *122:A2 1.84865e-05
16 *62:12 *121:B 0
17 *62:12 *122:A2 1.50223e-05
18 *120:B *119:A 4.17702e-05
19 *125:B *125:A 9.84729e-05
20 *126:B *62:34 9.15842e-06
21 *126:B *62:49 0.00014852
22 *131:A *121:A 0.000303747
23 *131:A *122:A1 0.00018077
24 *50:6 *119:A 5.66971e-05
25 *57:12 *62:12 4.61643e-05
*RES
1 *130:Q *62:8 14.3357 
2 *62:8 *62:12 7.35714 
3 *62:12 *122:A1 20.8 
4 *62:12 *121:A 12.3 
5 *62:8 *62:34 1.64286 
6 *62:34 *119:A 14.7464 
7 *62:34 *62:49 3.51786 
8 *62:49 *125:A 14.7464 
9 *62:49 *141:A 20.4071 
*END

*D_NET *63 0.000726498
*CONN
*I *127:D I *D sky130_fd_sc_hd__dfrtp_1
*I *137:X O *D sky130_fd_sc_hd__dlygate4sd3_1
*CAP
1 *127:D 0.00025178
2 *137:X 0.00025178
3 *127:D *65:22 1.80632e-05
4 *127:CLK *127:D 0.00012899
5 *56:10 *127:D 7.58841e-05
*RES
1 *137:X *127:D 31.408 
*END

*D_NET *64 0.00148314
*CONN
*I *124:A I *D sky130_fd_sc_hd__xor2_1
*I *138:X O *D sky130_fd_sc_hd__dlygate4sd3_1
*CAP
1 *124:A 0.000545846
2 *138:X 0.000545846
3 *124:A *66:10 0
4 *128:RESET_B *124:A 0.00039145
5 *132:A *124:A 0
*RES
1 *138:X *124:A 35.1179 
*END

*D_NET *65 0.00436886
*CONN
*I *142:A I *D sky130_fd_sc_hd__buf_2
*I *120:A I *D sky130_fd_sc_hd__xnor2_1
*I *122:A2 I *D sky130_fd_sc_hd__a31o_1
*I *121:B I *D sky130_fd_sc_hd__and4_1
*I *127:Q O *D sky130_fd_sc_hd__dfrtp_1
*CAP
1 *142:A 0
2 *120:A 0
3 *122:A2 0.000331698
4 *121:B 0.000212001
5 *127:Q 0.00040008
6 *65:26 0.000692767
7 *65:22 0.000679906
8 *65:12 0.000930918
9 *121:B *121:C 5.52238e-05
10 *122:A2 *66:25 1.14823e-05
11 *65:22 *143:A 0.000221886
12 uo_out[1] *65:22 2.85234e-05
13 uo_out[7] *65:12 0.000149959
14 *122:A1 *122:A2 5.58941e-05
15 *127:D *65:22 1.80632e-05
16 *130:D *65:22 0.000119977
17 *133:A *65:22 0.00011307
18 *137:A *65:22 0.000139344
19 *57:12 *122:A2 0.00017087
20 *57:35 *122:A2 3.69047e-06
21 *62:8 *122:A2 1.84865e-05
22 *62:12 *121:B 0
23 *62:12 *122:A2 1.50223e-05
*RES
1 *127:Q *65:12 23.6571 
2 *65:12 *65:22 19.9107 
3 *65:22 *65:26 7.05357 
4 *65:26 *121:B 17.1929 
5 *65:26 *122:A2 29.175 
6 *65:22 *120:A 9.3 
7 *65:12 *142:A 9.3 
*END

*D_NET *66 0.00433134
*CONN
*I *143:A I *D sky130_fd_sc_hd__buf_2
*I *121:C I *D sky130_fd_sc_hd__and4_1
*I *122:B1 I *D sky130_fd_sc_hd__a31o_1
*I *128:Q O *D sky130_fd_sc_hd__dfrtp_1
*CAP
1 *143:A 0.000276187
2 *121:C 0.000150001
3 *122:B1 0
4 *128:Q 0.000421348
5 *66:25 0.000924462
6 *66:10 0.000919622
7 *121:A *66:25 0.000315165
8 *121:B *121:C 5.52238e-05
9 *122:A1 *66:10 1.02504e-05
10 *122:A1 *66:25 0.000236463
11 *122:A2 *66:25 1.14823e-05
12 *124:A *66:10 0
13 *124:B *66:10 9.80029e-05
14 *131:A *121:C 0.000271345
15 *131:A *66:25 9.02133e-05
16 *132:A *121:C 2.60961e-05
17 *132:A *143:A 2.53112e-06
18 *133:A *143:A 9.66998e-05
19 *137:A *143:A 0.000126272
20 *51:12 *66:10 7.80929e-05
21 *65:22 *143:A 0.000221886
*RES
1 *128:Q *66:10 21.6571 
2 *66:10 *122:B1 13.8 
3 *66:10 *66:25 16.3214 
4 *66:25 *121:C 17.425 
5 *66:25 *143:A 20.6036 
*END

*D_NET *67 0.00245742
*CONN
*I *144:A I *D sky130_fd_sc_hd__buf_2
*I *138:A I *D sky130_fd_sc_hd__dlygate4sd3_1
*I *129:Q O *D sky130_fd_sc_hd__dfrtp_1
*CAP
1 *144:A 0.000543909
2 *138:A 0.000377882
3 *129:Q 5.05962e-05
4 *67:8 0.000972387
5 uio_oe[0] *144:A 0.000211492
6 uio_oe[5] *138:A 1.28585e-05
7 uio_out[5] *144:A 1.01912e-05
8 uio_out[6] *144:A 0
9 *134:A *144:A 0.00014593
10 *135:A *144:A 0.000132178
*RES
1 *129:Q *67:8 14.3357 
2 *67:8 *138:A 20.3714 
3 *67:8 *144:A 25.9964 
*END
